
******************************************************************************
This program contains Ipopt, a library for large-scale nonlinear optimization.
 Ipopt is released as open source code under the Eclipse Public License (EPL).
         For more information visit http://projects.coin-or.org/Ipopt

This version of Ipopt was compiled from source code available at
    https://github.com/IDAES/Ipopt as part of the Institute for the Design of
    Advanced Energy Systems Process Systems Engineering Framework (IDAES PSE
    Framework) Copyright (c) 2018-2019. See https://github.com/IDAES/idaes-pse.

This version of Ipopt was compiled using HSL, a collection of Fortran codes
    for large-scale scientific computation.  All technical papers, sales and
    publicity material resulting from use of the HSL codes within IPOPT must
    contain the following acknowledgement:
        HSL, a collection of Fortran codes for large-scale scientific
        computation. See http://www.hsl.rl.ac.uk.
******************************************************************************

This is Ipopt version 3.13.2, running with linear solver ma27.

Number of nonzeros in equality constraint Jacobian...:      958
Number of nonzeros in inequality constraint Jacobian.:        0
Number of nonzeros in Lagrangian Hessian.............:      832

Total number of variables............................:      416
                     variables with only lower bounds:      128
                variables with lower and upper bounds:      224
                     variables with only upper bounds:        0
Total number of equality constraints.................:      415
Total number of inequality constraints...............:        0
        inequality constraints with only lower bounds:        0
   inequality constraints with lower and upper bounds:        0
        inequality constraints with only upper bounds:        0

iter    objective    inf_pr   inf_du lg(mu)  ||d||  lg(rg) alpha_du alpha_pr  ls
   0  0.0000000e+00 1.12e+00 1.69e-13  -1.0 0.00e+00    -  0.00e+00 0.00e+00   0
   1  1.0260716e+01 1.09e+00 4.64e+05  -1.0 1.19e+07    -  2.48e-02 1.66e-02h  3
   2  2.6063474e+01 1.08e+00 5.75e+05  -1.0 1.72e+07    -  2.26e-02 8.41e-03h  4
   3  3.2723606e+01 1.08e+00 5.82e+05  -1.0 2.22e+07    -  2.15e-02 2.32e-03h  6
   4  3.6511318e+01 1.08e+00 5.83e+05  -1.0 2.45e+07    -  2.09e-02 1.13e-03h  7
   5  3.8413438e+01 1.08e+00 5.83e+05  -1.0 2.61e+07    -  2.29e-02 5.19e-04h  8
   6  4.2033906e+01 1.08e+00 5.84e+05  -1.0 2.90e+07    -  2.12e-02 8.83e-04h  7
   7  2.8491290e+02 1.05e+00 2.38e+06  -1.0 2.93e+07    -  2.48e-02 2.82e-02h  2
   8  3.1588192e+02 1.04e+00 2.38e+06  -1.0 4.39e+07    -  2.71e-02 1.52e-03h  5
   9  9.9296747e+02 1.02e+00 3.00e+06  -1.0 4.62e+07    -  2.89e-02 2.13e-02h  1
iter    objective    inf_pr   inf_du lg(mu)  ||d||  lg(rg) alpha_du alpha_pr  ls
  10  1.0030703e+03 1.02e+00 3.00e+06  -1.0 4.84e+07    -  3.66e-02 2.07e-04h  1
  11r 1.0030703e+03 1.02e+00 1.00e+03   0.0 0.00e+00    -  0.00e+00 3.24e-07R  4
  12r 1.0030718e+03 9.66e-01 9.97e+02   0.0 6.60e+02    -  2.85e-03 4.62e-03f  1
  13r 1.0030743e+03 1.88e+00 9.86e+02   0.0 5.86e+02    -  1.13e-02 8.46e-03f  1
  14r 1.0030768e+03 1.86e+00 9.76e+02   0.0 5.88e+02    -  1.48e-02 9.73e-03f  1
  15r 1.0030768e+03 1.86e+00 9.74e+02   0.0 2.28e+03    -  1.99e-02 2.59e-03f  1
  16r 1.0030776e+03 1.85e+00 9.71e+02   0.0 6.18e+02    -  1.15e-03 7.33e-03f  1
  17r 1.0030775e+03 1.84e+00 9.63e+02   0.0 1.96e+03    -  2.20e-02 3.86e-03f  1
  18r 1.0030790e+03 1.82e+00 9.57e+02   0.0 6.08e+02    -  1.18e-03 1.14e-02f  1
  19r 1.0030790e+03 1.81e+00 9.54e+02   0.0 1.88e+03    -  2.97e-02 2.19e-03f  1
iter    objective    inf_pr   inf_du lg(mu)  ||d||  lg(rg) alpha_du alpha_pr  ls
  20r 1.0030790e+03 1.80e+00 9.41e+02   0.0 2.10e+03    -  6.08e-03 9.04e-03f  1
  21r 1.0030786e+03 1.75e+00 9.62e+02   0.0 2.43e+03    -  1.67e-02 2.48e-02f  1
  22r 1.0030818e+03 1.73e+00 9.61e+02   0.0 7.08e+02    -  3.87e-03 1.47e-02f  1
  23r 1.0030819e+03 1.72e+00 9.53e+02   0.0 1.21e+03    -  8.87e-03 4.28e-03f  1
  24r 1.0030821e+03 1.71e+00 9.42e+02   0.0 1.25e+03    -  1.23e-02 8.39e-03f  1
  25r 1.0030821e+03 1.45e+00 7.68e+02   0.0 1.70e+00   2.0 2.35e-01 1.47e-01f  1
  26r 1.0030821e+03 1.08e+00 5.68e+02   0.0 1.45e+00   1.5 3.39e-01 2.55e-01f  1
  27r 1.0030821e+03 9.08e-01 6.03e+02   0.0 1.88e+00   1.9 1.84e-02 1.62e-01f  1
  28r 1.0030821e+03 9.08e-01 9.99e+02  -0.0 0.00e+00    -  0.00e+00 4.22e-07R  4
  29r 1.0030821e+03 7.66e-01 9.98e+02  -0.0 2.23e+03    -  6.64e-03 1.02e-03f  1
iter    objective    inf_pr   inf_du lg(mu)  ||d||  lg(rg) alpha_du alpha_pr  ls
  30r 1.0030821e+03 7.66e-01 9.99e+02  -0.1 0.00e+00    -  0.00e+00 3.49e-07R  5
  31r 1.0030824e+03 7.66e-01 9.96e+02  -0.1 1.66e+03    -  1.43e-02 3.13e-03f  1
  32r 1.0030833e+03 7.65e-01 9.89e+02  -0.1 1.62e+03    -  3.77e-03 7.30e-03f  1
  33r 1.0030842e+03 7.64e-01 9.83e+02  -0.1 1.78e+03    -  5.35e-03 6.11e-03f  1
  34r 1.0030853e+03 7.62e-01 9.75e+02  -0.1 1.16e+03    -  3.20e-02 7.21e-03f  1
  35r 1.0030949e+03 1.99e+00 9.31e+02  -0.1 7.44e+02    -  2.54e-02 4.52e-02f  1
  36r 1.0030980e+03 1.96e+00 9.17e+02  -0.1 1.00e+03    -  5.98e-02 1.56e-02f  1
  37r 1.0030980e+03 1.96e+00 9.17e+02  -0.1 1.44e+05    -  1.90e-05 2.98e-05f  1
  38r 1.0031074e+03 1.87e+00 8.80e+02  -0.1 8.51e+02    -  2.10e-02 4.37e-02f  1
  39r 1.0031074e+03 1.85e+00 8.66e+02  -0.1 2.51e+02  -2.0 2.54e-02 1.23e-02f  1
iter    objective    inf_pr   inf_du lg(mu)  ||d||  lg(rg) alpha_du alpha_pr  ls
  40r 1.0031074e+03 1.77e+00 8.29e+02  -0.1 6.34e+01  -1.6 6.91e-02 4.21e-02f  1
  41r 1.0031074e+03 1.76e+00 8.25e+02  -0.1 2.04e+03  -1.1 4.05e-04 5.26e-03f  1
  42r 1.0031074e+03 1.75e+00 8.22e+02  -0.1 1.89e+02  -1.6 5.71e-02 3.87e-03f  1
  43r 1.0031074e+03 1.58e+00 7.41e+02  -0.1 2.49e+01  -1.2 5.85e-02 9.89e-02f  1
  44r 1.0031074e+03 1.46e+00 7.08e+02  -0.1 1.21e+02  -0.8 2.69e-02 7.28e-02f  1
  45r 1.0031074e+03 1.37e+00 6.42e+02  -0.1 3.29e+01  -0.3 1.19e-01 6.56e-02f  1
  46r 1.0031074e+03 1.28e+00 6.26e+02  -0.1 1.10e+01   0.1 3.61e-02 6.67e-02f  1
  47r 1.0031074e+03 1.27e+00 6.17e+02  -0.1 2.25e+02  -0.4 4.33e-03 2.31e-03f  1
  48r 1.0031074e+03 1.22e+00 6.55e+02  -0.1 2.55e+01   0.0 1.64e-02 3.96e-02f  1
  49r 1.0031074e+03 1.20e+00 6.18e+02  -0.1 3.36e+00   2.3 5.72e-02 2.25e-02f  1
iter    objective    inf_pr   inf_du lg(mu)  ||d||  lg(rg) alpha_du alpha_pr  ls
  50r 1.0031074e+03 1.19e+00 6.15e+02  -0.1 1.99e+01   1.8 8.87e-03 2.87e-03f  1
  51r 1.0031074e+03 9.48e-01 8.16e+02  -0.1 1.19e+00   1.3 1.49e-01 2.05e-01f  1
  52r 1.0031074e+03 7.97e-01 6.91e+02  -0.1 9.47e-01   2.6 1.70e-01 1.60e-01f  1
  53r 1.0031074e+03 6.17e-01 1.73e+03  -0.1 7.94e-01   3.1 2.05e-01 4.83e-01f  1
  54  1.0045558e+03 6.17e-01 7.52e+03  -1.0 5.15e+07    -  3.52e-02 5.11e-05h  1
  55  9.9125133e+02 1.05e+01 6.08e+04  -1.0 2.30e+08    -  1.73e-02 1.33e-03f  2
  56  9.9020509e+02 1.05e+01 1.15e+05  -1.0 2.21e+08    -  1.80e-02 3.12e-04f  5
  57  9.9062080e+02 1.05e+01 2.32e+05  -1.0 8.96e+07    -  2.49e-02 3.08e-04h  5
  58  9.9113967e+02 1.05e+01 9.61e+05  -1.0 9.16e+07    -  2.87e-02 2.97e-04h  5
  59  9.9175483e+02 1.05e+01 5.79e+06  -1.0 9.36e+07    -  2.87e-02 2.86e-04h  5
iter    objective    inf_pr   inf_du lg(mu)  ||d||  lg(rg) alpha_du alpha_pr  ls
  60  9.9245995e+02 1.05e+01 3.96e+07  -1.0 9.54e+07    -  2.89e-02 2.77e-04h  5
  61  9.9282945e+02 1.05e+01 3.09e+08  -1.0 9.72e+07    -  3.14e-02 1.34e-04h  6
  62  9.9301765e+02 1.04e+01 1.38e+09  -1.0 9.81e+07    -  3.26e-02 6.56e-05h  7
  63  9.9311120e+02 1.04e+01 2.73e+09  -1.0 9.86e+07    -  3.44e-02 3.21e-05h  8
  64r 9.9311120e+02 1.04e+01 1.00e+03   1.0 0.00e+00    -  0.00e+00 4.41e-07R 14
  65r 9.9311116e+02 1.25e+00 9.91e+02   1.0 5.58e+03    -  1.40e-02 1.86e-03f  1
  66r 9.9311116e+02 1.25e+00 9.99e+02   0.1 0.00e+00    -  0.00e+00 1.16e-07R  2
  67r 9.9311128e+02 6.14e-01 9.97e+02   0.1 1.25e+03    -  2.88e-02 9.94e-04f  1
  68  9.9321237e+02 6.13e-01 8.41e+03  -1.0 9.79e+07    -  2.42e-02 3.04e-05h  6
  69r 9.9321237e+02 6.13e-01 1.00e+03  -0.2 0.00e+00    -  0.00e+00 3.99e-07R 14
iter    objective    inf_pr   inf_du lg(mu)  ||d||  lg(rg) alpha_du alpha_pr  ls
  70r 9.9321301e+02 6.10e-01 9.97e+02  -0.2 8.07e+02    -  1.06e-02 2.28e-03f  1
  71r 9.9321502e+02 5.98e-01 9.90e+02  -0.2 1.53e+03    -  6.05e-03 7.06e-03f  1
  72r 9.9321730e+02 6.06e-01 9.82e+02  -0.2 1.56e+03    -  4.21e-03 8.08e-03f  1
  73r 9.9322103e+02 6.20e-01 9.69e+02  -0.2 7.46e+02    -  3.08e-02 1.26e-02f  1
  74r 9.9322360e+02 6.20e-01 9.61e+02  -0.2 1.33e+03    -  1.47e-02 8.94e-03f  1
  75r 9.9322360e+02 6.19e-01 9.06e+02  -0.2 1.51e+02  -2.0 1.05e-01 5.65e-02f  1
  76r 9.9322360e+02 6.18e-01 8.85e+02  -0.2 5.97e+02  -1.6 6.63e-04 2.60e-02f  1
  77r 9.9322360e+02 6.18e-01 8.79e+02  -0.2 1.33e+03  -2.1 3.15e-02 4.06e-03f  1
  78r 9.9322360e+02 6.18e-01 8.73e+02  -0.2 9.77e+02  -2.5 1.08e-01 7.58e-03f  1
  79r 9.9322741e+02 6.17e-01 8.31e+02  -0.2 8.79e+02    -  2.33e-01 4.83e-02f  1
iter    objective    inf_pr   inf_du lg(mu)  ||d||  lg(rg) alpha_du alpha_pr  ls
  80r 9.9323135e+02 6.16e-01 7.81e+02  -0.2 5.19e+02    -  3.29e-02 5.97e-02f  1
  81r 9.9323956e+02 6.15e-01 6.68e+02  -0.2 9.28e+02    -  1.52e-01 1.45e-01f  1
  82r 9.9323956e+02 6.15e-01 7.33e+02  -0.2 5.04e-01   2.4 1.69e-01 8.43e-02f  1
  83r 9.9323956e+02 6.13e-01 4.77e+02  -0.2 7.28e-02   2.8 3.67e-01 3.46e-01f  1
  84r 9.9323956e+02 6.12e-01 3.32e+02  -0.2 8.26e-01   2.4 1.05e-01 3.80e-01f  1
  85r 9.9323956e+02 6.12e-01 3.22e+02  -0.2 1.41e+00   1.9 1.90e-02 6.10e-03h  1
  86r 9.9323956e+02 6.10e-01 1.39e+02  -0.2 5.56e-02   3.2 7.55e-01 1.00e+00f  1
  87r 9.9323956e+02 6.10e-01 1.06e+02  -0.2 1.48e-01   2.7 5.27e-01 3.17e-01f  1
  88r 9.9323956e+02 6.10e-01 5.18e+01  -0.2 2.98e-02   3.2 9.90e-01 1.00e+00f  1
  89r 9.9323956e+02 6.10e-01 1.43e+03  -0.2 2.78e-01   2.7 2.28e-01 8.74e-01f  1
iter    objective    inf_pr   inf_du lg(mu)  ||d||  lg(rg) alpha_du alpha_pr  ls
  90r 9.9323956e+02 6.10e-01 1.04e+03  -0.2 2.03e-01   3.1 9.90e-01 2.68e-01f  1
  91r 9.9323850e+02 6.10e-01 1.04e+03  -0.2 2.43e+03    -  4.25e-02 3.08e-03f  1
  92r 9.9323841e+02 6.10e-01 1.20e+03  -0.2 7.81e+02    -  1.90e-01 3.52e-03f  1
  93r 9.9321875e+02 6.08e-01 8.54e+02  -0.2 4.09e+02    -  2.92e-02 2.31e-01f  1
  94r 9.9321753e+02 6.08e-01 8.37e+02  -0.2 4.47e+02    -  2.01e-01 1.38e-02f  1
  95r 9.9321564e+02 6.08e-01 5.72e+02  -0.2 5.97e+02    -  2.80e-01 3.18e-01f  1
  96r 9.9320781e+02 6.08e-01 5.00e+02  -0.2 3.67e+02    -  1.94e-02 1.20e-01f  1
  97r 9.9320449e+02 6.08e-01 1.28e+03  -0.2 3.68e+02    -  5.97e-01 1.00e+00f  1
  98r 9.9320045e+02 1.36e+00 1.02e+03  -0.2 1.90e+02    -  4.81e-01 2.35e-01f  1
  99r 9.9319536e+02 1.23e+00 9.24e+02  -0.2 1.50e+03    -  9.22e-02 9.53e-02f  1
iter    objective    inf_pr   inf_du lg(mu)  ||d||  lg(rg) alpha_du alpha_pr  ls
 100r 9.9319536e+02 6.07e-01 4.87e+02  -0.2 1.23e+00   2.6 9.46e-01 9.17e-01f  1
 101r 9.9319414e+02 6.07e-01 4.78e+02  -0.2 1.38e+03    -  3.34e-02 1.98e-02f  1
 102r 9.9319414e+02 6.07e-01 1.25e+02  -0.2 1.05e-01   2.2 1.00e+00 8.67e-01h  1
 103r 9.9318871e+02 6.07e-01 1.34e+03  -0.2 9.67e+03    -  3.56e-03 2.41e-02f  1
 104r 9.9318871e+02 6.07e-01 1.81e+01  -0.2 3.78e-01   1.7 1.00e+00 1.00e+00f  1
 105r 9.9318871e+02 6.08e-01 6.21e+01  -0.9 1.16e+00   1.2 1.00e+00 8.32e-01f  1
 106r 9.9318871e+02 6.09e-01 7.97e+01  -0.9 3.75e+00   0.7 9.05e-01 1.00e+00f  1
 107r 9.9318871e+02 6.09e-01 1.43e+02  -0.9 1.30e+01   0.2 4.29e-01 7.36e-02f  1
 108r 9.9318871e+02 6.09e-01 1.68e+02  -0.9 3.50e+01  -0.2 2.39e-01 3.59e-03f  1
 109r 9.9318871e+02 6.09e-01 6.44e+02  -0.9 9.41e+00   0.2 1.00e+00 2.27e-01f  1
iter    objective    inf_pr   inf_du lg(mu)  ||d||  lg(rg) alpha_du alpha_pr  ls
 110r 9.9318871e+02 6.09e-01 4.78e+02  -0.9 4.30e+01  -0.3 1.56e-01 2.57e-01f  1
 111r 9.9318851e+02 6.09e-01 4.78e+02  -0.9 2.00e+03    -  2.14e-01 1.51e-03f  1
 112r 9.9317786e+02 6.09e-01 6.97e+02  -0.9 2.72e+02    -  1.00e+00 1.80e-01f  1
 113r 9.9312922e+02 6.09e-01 2.95e+01  -0.9 2.23e+02    -  1.00e+00 1.00e+00f  1
 114r 9.9312877e+02 6.09e-01 1.42e-04  -0.9 1.13e+01    -  1.00e+00 1.00e+00h  1
 115r 9.9312859e+02 6.09e-01 1.64e+01  -3.6 5.45e+01    -  9.75e-01 8.80e-01f  1
 116r 9.9291367e+02 6.09e-01 1.06e+02  -3.6 1.04e+04    -  2.39e-01 9.09e-02f  1
 117r 9.9272279e+02 6.09e-01 4.21e+02  -3.6 9.49e+03    -  9.64e-01 9.37e-02f  1
 118r 9.9196974e+02 6.09e-01 5.26e+02  -3.6 8.60e+03    -  1.00e+00 3.90e-01f  1
 119r 9.9194233e+02 6.09e-01 4.76e+02  -3.6 5.25e+03    -  1.00e+00 2.35e-02f  1
iter    objective    inf_pr   inf_du lg(mu)  ||d||  lg(rg) alpha_du alpha_pr  ls
 120r 9.9128483e+02 6.09e-01 1.88e+02  -3.6 5.12e+03    -  1.00e+00 5.77e-01f  1
 121r 9.9080530e+02 6.09e-01 2.14e-03  -3.6 2.17e+03    -  1.00e+00 1.00e+00f  1
 122r 9.9080540e+02 6.09e-01 5.44e-03  -5.4 1.03e+01    -  1.00e+00 1.00e+00f  1
 123r 9.8808343e+02 6.09e-01 4.18e+02  -5.4 8.11e+04    -  1.00e+00 1.48e-01f  1
 124r 9.8808329e+02 6.09e-01 6.47e+02  -5.4 6.09e+04    -  1.00e+00 9.39e-06f  1
 125r 9.8460434e+02 6.09e-01 5.25e+02  -5.4 6.09e+04    -  1.00e+00 2.39e-01f  1
 126r 9.8365515e+02 6.09e-01 5.08e+02  -5.4 4.74e+04    -  1.00e+00 9.04e-02f  1
 127r 9.8165523e+02 6.09e-01 4.54e+02  -5.4 3.91e+04    -  1.00e+00 2.15e-01f  1
 128r 9.7991885e+02 6.09e-01 4.37e+02  -5.4 3.11e+04    -  1.00e+00 2.31e-01f  1
 129r 9.7431850e+02 6.09e-01 9.53e-02  -5.4 2.39e+04    -  1.00e+00 1.00e+00f  1
iter    objective    inf_pr   inf_du lg(mu)  ||d||  lg(rg) alpha_du alpha_pr  ls
 130r 9.7430920e+02 6.09e-01 1.77e-06  -5.4 1.19e+02    -  1.00e+00 1.00e+00h  1
 131r 9.7430919e+02 6.09e-01 7.39e-04  -8.2 1.07e-01    -  1.00e+00 1.00e+00f  1
 132r 9.7430919e+02 6.09e-01 1.29e+02  -8.2 1.53e-03  -0.8 1.00e+00 8.14e-01h  1
 133r 9.7430919e+02 6.09e-01 2.68e-04  -8.2 4.59e-03  -1.2 1.00e+00 1.00e+00f  1
 134r 9.7430919e+02 6.09e-01 2.68e-04  -8.2 1.38e-02  -1.7 1.00e+00 1.00e+00f  1
 135r 9.7430919e+02 6.09e-01 2.68e-04  -8.2 4.13e-02  -2.2 1.00e+00 1.00e+00f  1
 136r 9.7430918e+02 6.09e-01 2.68e-04  -8.2 1.24e-01  -2.7 1.00e+00 1.00e+00f  1
 137r 9.7430915e+02 6.09e-01 2.68e-04  -8.2 3.72e-01  -3.1 1.00e+00 1.00e+00f  1
 138r 9.7430905e+02 6.09e-01 2.68e-04  -8.2 1.12e+00  -3.6 1.00e+00 1.00e+00f  1
 139r 9.7430876e+02 6.09e-01 2.68e-04  -8.2 3.35e+00  -4.1 1.00e+00 1.00e+00f  1
iter    objective    inf_pr   inf_du lg(mu)  ||d||  lg(rg) alpha_du alpha_pr  ls
 140r 9.7430788e+02 6.09e-01 2.68e-04  -8.2 1.00e+01  -4.6 1.00e+00 1.00e+00f  1
 141r 9.7430526e+02 6.09e-01 2.68e-04  -8.2 3.01e+01  -5.1 1.00e+00 1.00e+00f  1
 142r 9.7429741e+02 6.09e-01 2.68e-04  -8.2 9.03e+01  -5.5 1.00e+00 1.00e+00f  1
 143r 9.7427386e+02 6.09e-01 2.68e-04  -8.2 2.71e+02  -6.0 1.00e+00 1.00e+00f  1
 144r 9.7420339e+02 6.09e-01 2.67e-04  -8.2 8.09e+02  -6.5 1.00e+00 1.00e+00f  1
 145r 9.7399373e+02 6.09e-01 2.64e-04  -8.2 2.40e+03  -7.0 1.00e+00 1.00e+00f  1
 146r 9.7337970e+02 6.09e-01 2.56e-04  -8.2 6.99e+03  -7.4 1.00e+00 1.00e+00f  1
 147r 9.7219907e+02 6.09e-01 3.43e-01  -8.2 1.94e+04  -7.9 1.00e+00 6.77e-01f  1
 148r 9.7219907e+02 6.09e-01 3.43e-01  -8.2 5.14e+04  -8.4 0.00e+00 1.68e-14R 21
 149r 9.7219907e+02 6.09e-01 9.60e+02  -8.2 1.44e+05  -8.9 1.00e+00 1.46e-08f  1
iter    objective    inf_pr   inf_du lg(mu)  ||d||  lg(rg) alpha_du alpha_pr  ls
 150r 9.6578607e+02 6.09e-01 8.82e+02  -8.2 7.03e+05  -9.3 1.00e+00 1.50e-01f  1
 151r 9.6578607e+02 6.09e-01 9.72e+02  -8.2 2.46e+05  -8.9 1.00e+00 3.32e-08h  1
 152r 9.6420539e+02 6.09e-01 6.44e+02  -8.2 6.98e+04  -8.5 1.00e+00 3.25e-01f  1
 153r 9.6420539e+02 6.09e-01 9.05e+02  -8.2 3.42e+05  -9.0 1.00e+00 2.68e-07f  1
 154r 9.6289605e+02 6.09e-01 6.59e+02  -8.2 8.62e+04  -8.5 1.00e+00 2.61e-01f  1
 155r 9.6289603e+02 6.09e-01 8.59e+02  -8.2 1.36e+05  -9.0 1.00e+00 1.42e-06f  1
 156r 9.5540734e+02 6.09e-01 7.17e+02  -8.2 3.03e+05  -9.5 1.00e+00 2.15e-01f  1
 157r 9.5540733e+02 6.09e-01 7.02e+02  -8.2 1.53e+06 -10.0 4.27e-01 7.00e-08f  1
 158r 9.4321523e+02 6.10e-01 5.90e+02  -8.2 3.78e+05  -9.5 1.00e+00 3.33e-01f  1
 159r 9.4321518e+02 6.10e-01 5.73e+02  -8.2 8.54e+06 -10.0 4.74e-02 1.28e-07f  1
iter    objective    inf_pr   inf_du lg(mu)  ||d||  lg(rg) alpha_du alpha_pr  ls
 160r 9.4321518e+02 6.10e-01 8.08e+02  -8.2 1.96e-01   3.8 6.27e-06 3.57e-04h  1
 161r 9.4321518e+02 6.10e-01 2.07e+03  -8.2 2.31e-01   3.3 5.40e-04 1.35e-03h  1
 162r 9.4321518e+02 6.10e-01 2.06e+03  -8.2 6.57e-02   2.9 1.29e-03 3.31e-03h  1
 163r 9.4321518e+02 6.10e-01 3.31e+03  -8.2 2.41e-01   2.4 3.04e-04 4.90e-03f  1
 164r 9.4321518e+02 6.10e-01 5.06e+03  -8.2 6.57e-02   2.8 2.61e-04 7.63e-03h  1
 165r 9.4321518e+02 6.10e-01 5.36e+03  -8.2 4.75e-01   2.3 6.01e-04 4.99e-03f  1
 166r 9.4321518e+02 6.10e-01 9.50e+03  -8.2 4.11e-02   2.8 8.74e-04 2.28e-02h  1
 167r 9.4321518e+02 6.10e-01 9.50e+03  -8.2 3.60e+00   2.3 1.32e-02 1.01e-05f  1
 168r 9.4321518e+02 6.10e-01 8.91e+03  -8.2 4.27e-02   1.8 6.71e-03 6.17e-02h  1
 169r 9.4321518e+02 6.10e-01 8.85e+03  -8.2 4.02e-02   1.3 2.29e-02 6.69e-03h  1
iter    objective    inf_pr   inf_du lg(mu)  ||d||  lg(rg) alpha_du alpha_pr  ls
 170r 9.4321518e+02 6.10e-01 8.37e+03  -8.2 4.00e-02   0.9 6.89e-03 5.39e-02h  1
 171r 9.4321518e+02 6.10e-01 7.70e+03  -8.2 3.79e-02   0.4 1.38e-02 8.05e-02h  1
 172r 9.4321518e+02 6.10e-01 4.60e+03  -8.2 3.48e-02  -0.1 3.21e-02 4.47e-01h  1
 173r 9.4321518e+02 6.10e-01 4.25e+03  -8.2 1.92e-02  -0.6 4.62e-02 7.16e-02h  1
 174r 9.4321518e+02 6.10e-01 5.46e+03  -8.2 3.73e-02  -1.1 1.46e-02 2.67e-01h  1
 175r 9.4321518e+02 6.10e-01 4.87e+03  -8.2 3.54e-02  -1.5 9.08e-02 1.08e-01h  1
 176r 9.4321518e+02 6.10e-01 1.10e+03  -8.2 1.06e-01  -2.0 4.97e-02 8.89e-01h  1
 177r 9.4321518e+02 6.10e-01 3.87e+02  -8.2 3.19e-01  -2.5 9.70e-01 2.86e-01h  1
 178r 9.4321517e+02 6.10e-01 8.94e-02  -8.2 9.56e-01  -3.0 1.00e+00 1.00e+00h  1
 179r 9.4321516e+02 6.10e-01 7.77e-02  -8.2 2.87e+00  -3.4 1.00e+00 5.05e-01f  1
iter    objective    inf_pr   inf_du lg(mu)  ||d||  lg(rg) alpha_du alpha_pr  ls
 180r 9.4321513e+02 6.10e-01 1.93e+02  -8.2 8.61e+00  -3.9 1.00e+00 6.53e-01f  1
 181r 9.4321513e+02 6.10e-01 1.05e+03  -8.2 2.58e+01  -4.4 1.00e+00 6.74e-03f  1
 182r 9.4321500e+02 6.10e-01 1.09e+03  -8.2 4.01e+01  -4.9 7.48e-01 2.97e-01f  1
 183r 9.4321492e+02 6.10e-01 1.07e+03  -8.2 1.05e+02  -5.3 1.08e-02 5.26e-02f  1
 184r 9.4321490e+02 6.10e-01 1.26e+03  -8.2 2.40e+02  -5.8 1.00e+00 5.49e-03f  1
 185r 9.4321466e+02 6.10e-01 1.27e+03  -8.2 7.20e+02  -6.3 5.71e-01 1.85e-02f  1
 186r 9.4321421e+02 6.10e-01 1.31e+03  -8.2 1.72e+03  -6.8 1.97e-01 1.12e-02f  1
 187r 9.4320661e+02 6.10e-01 1.20e+03  -8.2 5.10e+03  -7.3 1.11e-02 6.33e-02f  1
 188r 9.4320481e+02 6.10e-01 1.24e+03  -8.2 1.48e+04  -7.7 1.00e+00 4.85e-03f  1
 189r 9.4320234e+02 6.10e-01 1.24e+03  -8.2 4.09e+04  -8.2 3.44e-02 2.19e-03f  1
iter    objective    inf_pr   inf_du lg(mu)  ||d||  lg(rg) alpha_du alpha_pr  ls
 190r 9.4319327e+02 6.10e-01 1.24e+03  -8.2 9.88e+04  -8.7 1.00e+00 2.37e-03f  1
 191r 9.4316180e+02 6.10e-01 1.50e+03  -8.2 1.87e+05  -9.2 1.00e+00 2.65e-03f  1
 192r 9.4294544e+02 6.10e-01 1.39e+03  -8.2 6.70e+05  -9.6 1.00e+00 5.05e-03f  1
 193r 9.4241611e+02 6.10e-01 1.06e+03  -8.2 1.86e+05  -9.2 1.00e+00 3.76e-02f  1
 194r 9.4141988e+02 6.10e-01 1.02e+03  -8.2 8.45e+05  -9.7 5.10e-01 1.62e-02f  1
 195r 9.4075200e+02 6.10e-01 9.83e+02  -8.2 2.21e+05  -9.3 9.17e-09 3.56e-02f  1
 196r 9.4075200e+02 6.10e-01 9.35e+02  -8.2 6.99e-02   2.6 2.60e-06 1.09e-09h 11
 197r 9.4075200e+02 6.10e-01 9.35e+02  -8.2 1.63e-02   3.0 0.00e+00 5.31e-13R 22
 198r 9.4075200e+02 6.10e-01 1.01e+03  -8.2 8.94e-02   2.5 1.49e-01 4.87e-06f  1
 199r 9.4075200e+02 6.10e-01 8.63e+02  -8.2 1.89e-02   3.0 1.87e-02 1.09e-01f  1
iter    objective    inf_pr   inf_du lg(mu)  ||d||  lg(rg) alpha_du alpha_pr  ls
 200r 9.4075200e+02 6.10e-01 2.47e+03  -8.2 9.83e-03   2.5 4.76e-02 3.80e-01f  1
 201r 9.4075200e+02 6.10e-01 2.48e+03  -8.2 1.27e-01   2.0 1.87e-02 2.96e-02f  1
 202r 9.4075200e+02 6.10e-01 5.02e+03  -8.2 7.98e-04   1.5 2.32e-02 6.13e-01f  1
 203r 9.4075200e+02 6.10e-01 4.76e+03  -8.2 3.05e-04   1.0 7.09e-02 1.23e-01f  1
 204r 9.4075200e+02 6.10e-01 6.15e+02  -8.2 1.11e-03   0.6 5.12e-01 8.70e-01f  1
 205r 9.4075200e+02 6.10e-01 1.66e+03  -8.2 1.07e-03   0.1 7.99e-02 4.05e-01f  1
 206r 9.4075200e+02 6.10e-01 2.34e+03  -8.2 2.55e-03  -0.4 3.50e-02 7.85e-01f  1
 207r 9.4075200e+02 6.10e-01 1.50e+03  -8.2 7.59e-03  -0.9 7.34e-01 3.58e-01f  1
 208r 9.4075200e+02 6.10e-01 3.85e+01  -8.2 2.27e-02  -1.3 9.91e-01 9.74e-01f  1
 209r 9.4075200e+02 6.10e-01 1.93e+01  -8.2 6.77e-02  -1.8 1.00e+00 5.43e-01f  1
iter    objective    inf_pr   inf_du lg(mu)  ||d||  lg(rg) alpha_du alpha_pr  ls
 210r 9.4075200e+02 6.10e-01 1.35e+03  -8.2 1.07e-01  -2.3 1.00e+00 3.84e-02f  1
 211r 9.4075200e+02 6.10e-01 1.45e+03  -8.2 3.20e-01  -2.8 1.00e+00 1.39e-01f  1
 212r 9.4075200e+02 6.10e-01 1.21e+03  -8.2 9.19e-01  -3.3 1.00e+00 3.90e-02f  1
 213r 9.4075200e+02 6.10e-01 1.28e+03  -8.2 1.84e+00  -3.7 2.59e-01 5.62e-02f  1
 214r 9.4075199e+02 6.10e-01 1.28e+03  -8.2 4.55e+00  -4.2 1.15e-01 4.99e-02f  1
 215r 9.4075198e+02 6.10e-01 1.29e+03  -8.2 1.37e+01  -4.7 1.19e-01 1.95e-02f  1
 216r 9.4075197e+02 6.10e-01 1.61e+03  -8.2 4.08e+01  -5.2 1.00e+00 1.51e-02f  1
 217r 9.4075196e+02 6.10e-01 1.31e+03  -8.2 6.05e+01  -5.6 1.00e+00 5.45e-03f  1
 218r 9.4075170e+02 6.10e-01 1.25e+03  -8.2 1.82e+02  -6.1 1.00e+00 3.16e-02f  1
 219r 9.4075101e+02 6.10e-01 1.23e+03  -8.2 5.44e+02  -6.6 1.00e+00 2.81e-02f  1
iter    objective    inf_pr   inf_du lg(mu)  ||d||  lg(rg) alpha_du alpha_pr  ls
 220r 9.4075035e+02 6.10e-01 1.10e+03  -8.2 1.63e+03  -7.1 1.00e+00 9.80e-03f  1
 221r 9.4074538e+02 6.10e-01 1.26e+03  -8.2 4.81e+03  -7.5 1.00e+00 2.40e-02f  1
 222r 9.4045918e+02 6.10e-01 5.69e+02  -8.2 1.26e+04  -8.0 1.00e+00 4.62e-01f  1
 223r 9.3878008e+02 6.09e-01 4.53e+01  -8.2 3.39e+04  -8.5 1.00e+00 9.29e-01f  1
 224r 9.3699454e+02 6.09e-01 2.96e+01  -8.2 1.09e+05  -9.0 1.00e+00 2.99e-01f  1
 225r 9.3699454e+02 6.09e-01 3.26e+02  -8.2 4.68e+05  -9.5 7.26e-01 5.69e-08h  1
 226r 9.3523593e+02 6.09e-01 2.24e+02  -8.2 1.31e+05  -9.0 8.97e-09 2.12e-01f  1
 227r 9.3523593e+02 6.09e-01 1.67e+02  -8.2 1.60e+00   2.8 4.94e-08 4.07e-08h  3
 228r 9.3523593e+02 6.09e-01 9.48e+02  -8.2 1.78e-01   2.3 2.56e-05 2.94e-08h  3
 229r 9.3523593e+02 6.09e-01 9.48e+02  -8.2 2.93e-02   2.8 9.80e-08 8.82e-08h  1
iter    objective    inf_pr   inf_du lg(mu)  ||d||  lg(rg) alpha_du alpha_pr  ls
 230r 9.3523593e+02 6.09e-01 1.84e+03  -8.2 2.90e+01   2.3 4.99e-08 4.06e-09h  6
 231r 9.3523593e+02 6.09e-01 1.84e+03  -8.2 2.79e-02   2.7 1.07e-05 4.79e-05h  1
 232r 9.3523593e+02 6.09e-01 1.84e+03  -8.2 6.08e-03   3.1 3.43e-05 2.03e-04h  1
 233r 9.3523593e+02 6.09e-01 2.03e+03  -8.2 2.61e-02   2.7 2.15e-04 4.82e-04h  1
 234r 9.3523593e+02 6.09e-01 2.03e+03  -8.2 6.98e-03   3.1 6.45e-04 1.16e-03h  1
 235r 9.3523593e+02 6.09e-01 2.98e+03  -8.2 3.19e-02   2.6 1.57e-03 2.03e-02f  1
 236r 9.3523593e+02 6.09e-01 2.95e+03  -8.2 8.17e-03   3.0 2.08e-02 4.37e-02h  1
 237r 9.3523593e+02 6.09e-01 2.28e+03  -8.2 4.08e-02   2.6 3.82e-02 3.17e-01f  1
 238r 9.3523593e+02 6.09e-01 2.16e+03  -8.2 2.51e-01   2.1 2.01e-09 3.83e-02h  1
 239r 9.3523593e+02 6.09e-01 3.25e+03  -8.2 5.75e-02   2.5 6.46e-01 1.68e-01f  1
iter    objective    inf_pr   inf_du lg(mu)  ||d||  lg(rg) alpha_du alpha_pr  ls
 240r 9.3523593e+02 6.09e-01 3.23e+03  -8.2 1.14e-02   2.0 4.79e-03 2.31e-02h  1
 241r 9.3523593e+02 6.09e-01 3.23e+03  -8.2 4.90e-01   1.6 6.62e-05 5.23e-04f  1
 242r 9.3523593e+02 6.09e-01 3.22e+03  -8.2 3.13e-03   1.1 1.81e-03 4.96e-03h  1
 243r 9.3523593e+02 6.09e-01 1.36e+03  -8.2 1.75e-03   0.6 5.92e-01 1.00e+00h  1
 244r 9.3523593e+02 6.09e-01 1.36e+03  -8.2 6.58e-03   0.1 3.61e-03 7.91e-04h  1
 245r 9.3523593e+02 6.09e-01 4.11e-02  -8.2 2.32e-03  -0.4 1.00e+00 1.00e+00f  1
 246r 9.3523593e+02 6.09e-01 1.03e-03  -8.2 6.96e-03  -0.8 1.00e+00 1.00e+00f  1
 247r 9.3523593e+02 6.09e-01 1.03e-03  -8.2 2.09e-02  -1.3 1.00e+00 1.00e+00f  1
 248r 9.3523593e+02 6.09e-01 1.03e-03  -8.2 6.26e-02  -1.8 1.00e+00 1.00e+00f  1
 249r 9.3523593e+02 6.09e-01 1.03e-03  -8.2 1.88e-01  -2.3 1.00e+00 1.00e+00f  1
iter    objective    inf_pr   inf_du lg(mu)  ||d||  lg(rg) alpha_du alpha_pr  ls
 250r 9.3523593e+02 6.09e-01 4.02e+00  -8.2 5.64e-01  -2.7 1.00e+00 3.11e-01f  1
 251r 9.3523593e+02 6.09e-01 2.69e+02  -8.2 1.69e+00  -3.2 1.00e+00 1.16e-01f  1
 252r 9.3523593e+02 6.09e-01 1.06e+03  -8.2 5.05e+00  -3.7 1.00e+00 2.30e-02f  1
 253r 9.3523593e+02 6.09e-01 1.09e+03  -8.2 7.88e+00  -4.2 3.71e-01 7.72e-03f  1
 254r 9.3523592e+02 6.09e-01 1.18e+03  -8.2 2.36e+01  -4.6 1.00e+00 3.05e-02f  1
 255r 9.3523592e+02 6.09e-01 1.09e+03  -8.2 4.67e+01  -5.1 1.00e+00 8.46e-03f  1
 256r 9.3523589e+02 6.09e-01 1.16e+03  -8.2 9.09e+01  -5.6 1.00e+00 1.70e-02f  1
 257r 9.3523582e+02 6.09e-01 1.33e+03  -8.2 2.04e+02  -6.1 1.00e+00 1.37e-02f  1
 258r 9.3522654e+02 6.09e-01 7.37e+02  -8.2 6.13e+02  -6.6 1.00e+00 5.24e-01f  1
 259r 9.3520192e+02 6.09e-01 4.14e+02  -8.2 1.83e+03  -7.0 1.00e+00 4.75e-01f  1
iter    objective    inf_pr   inf_du lg(mu)  ||d||  lg(rg) alpha_du alpha_pr  ls
 260r 9.3519973e+02 6.09e-01 6.60e+02  -8.2 5.46e+03  -7.5 1.00e+00 1.46e-02f  1
 261r 9.3472931e+02 6.09e-01 1.34e+01  -8.2 7.20e+03  -8.0 1.00e+00 9.88e-01f  1
 262r 9.3326426e+02 6.09e-01 1.57e-01  -8.2 2.02e+04  -8.5 1.00e+00 9.99e-01f  1
 263r 9.2846707e+02 6.09e-01 1.70e+00  -8.2 5.36e+04  -8.9 1.00e+00 1.00e+00f  1
 264r 9.2520548e+02 6.09e-01 2.25e+01  -8.2 1.98e+05  -9.4 3.41e-01 1.62e-01f  1
 265r 9.2520548e+02 6.09e-01 8.98e+01  -8.2 1.88e-01   2.4 1.81e-05 1.65e-05h  1
 266r 9.2520548e+02 6.09e-01 5.02e+02  -8.2 1.66e-01   1.9 9.82e-06 2.01e-05h  1
 267r 9.2520548e+02 6.09e-01 5.02e+02  -8.2 2.13e-01   1.5 3.06e-05 3.23e-05f  1
 268r 9.2520548e+02 6.09e-01 2.98e+03  -8.2 1.69e-01   1.0 3.13e-05 2.91e-04h  1
 269r 9.2520548e+02 6.09e-01 2.98e+03  -8.2 2.07e-01   0.5 2.94e-04 1.57e-04h  1
iter    objective    inf_pr   inf_du lg(mu)  ||d||  lg(rg) alpha_du alpha_pr  ls
 270r 9.2520548e+02 6.09e-01 2.98e+03  -8.2 9.57e-02   0.0 3.82e-04 1.53e-03f  1
 271r 9.2520548e+02 6.09e-01 6.76e+03  -8.2 1.03e-01  -0.4 2.06e-03 4.36e-02f  1
 272r 9.2520548e+02 6.09e-01 6.64e+03  -8.2 2.67e-02  -0.9 1.16e-02 4.39e-03f  1
 273r 9.2520548e+02 6.09e-01 3.67e+02  -8.2 2.50e-02  -1.4 3.39e-02 1.00e+00f  1
 274r 9.2520548e+02 6.09e-01 3.26e+02  -8.2 7.50e-02  -1.9 1.00e+00 4.85e-02h  1
 275r 9.2520548e+02 6.09e-01 1.02e-03  -8.2 2.25e-01  -2.3 1.00e+00 1.00e+00f  1
 276r 9.2520548e+02 6.09e-01 1.02e-03  -8.2 6.75e-01  -2.8 1.00e+00 1.00e+00f  1
 277r 9.2520548e+02 6.09e-01 2.66e+00  -8.2 2.03e+00  -3.3 1.00e+00 1.24e-02f  1
 278r 9.2520548e+02 6.09e-01 3.36e+02  -8.2 5.99e+00  -3.8 3.85e-01 1.94e-02f  1
 279r 9.2520547e+02 6.09e-01 1.72e+03  -8.2 9.44e+00  -4.3 1.00e+00 2.91e-02f  1
iter    objective    inf_pr   inf_du lg(mu)  ||d||  lg(rg) alpha_du alpha_pr  ls
 280r 9.2520547e+02 6.09e-01 9.43e+02  -8.2 2.82e+01  -4.7 1.00e+00 3.01e-02f  1
 281r 9.2520546e+02 6.09e-01 1.54e+03  -8.2 5.58e+01  -5.2 1.00e+00 7.05e-03f  1
 282r 9.2520543e+02 6.09e-01 1.46e+03  -8.2 1.10e+02  -5.7 1.00e+00 1.78e-02f  1
 283r 9.2520532e+02 6.09e-01 1.34e+03  -8.2 1.86e+02  -6.2 1.00e+00 1.43e-02f  1
 284r 9.2520472e+02 6.09e-01 1.37e+03  -8.2 2.79e+02  -6.6 1.00e+00 2.49e-02f  1
 285r 9.2513330e+02 6.09e-01 1.47e+01  -8.2 8.37e+02  -7.1 1.00e+00 9.89e-01f  1
 286r 9.2502553e+02 6.09e-01 7.68e+00  -8.2 2.52e+03  -7.6 1.00e+00 4.95e-01f  1
 287r 9.2437595e+02 6.09e-01 4.25e-02  -8.2 7.61e+03  -8.1 1.00e+00 1.00e+00f  1
 288r 9.2232426e+02 6.09e-01 2.41e+00  -8.2 2.35e+04  -8.5 9.27e-01 1.00e+00f  1
 289r 9.2232426e+02 6.09e-01 6.73e+00  -8.2 1.01e-02   3.3 5.07e-05 5.10e-05h  1
iter    objective    inf_pr   inf_du lg(mu)  ||d||  lg(rg) alpha_du alpha_pr  ls
 290r 9.2232426e+02 6.09e-01 6.94e+02  -8.2 8.38e-03   2.8 3.00e-05 6.15e-05h  1
 291r 9.2232426e+02 6.09e-01 6.94e+02  -8.2 9.25e-03   2.3 1.01e-04 8.69e-05f  1
 292r 9.2232426e+02 6.09e-01 1.76e+03  -8.2 5.93e-03   1.9 8.57e-05 7.04e-04f  1
 293r 9.2232426e+02 6.09e-01 1.76e+03  -8.2 2.03e-03   2.3 1.76e-04 2.96e-04h  1
 294r 9.2232426e+02 6.09e-01 4.50e+03  -8.2 6.31e-04   2.7 7.20e-04 3.43e-03f  1
 295r 9.2232426e+02 6.09e-01 4.47e+03  -8.2 2.03e-02   2.2 1.02e-04 6.32e-03f  1
 296r 9.2232426e+02 6.09e-01 6.44e+03  -8.2 6.31e-04   2.7 1.09e-02 1.65e-01f  1
 297r 9.2232426e+02 6.09e-01 1.96e+03  -8.2 5.26e-04   3.1 8.96e-02 4.75e-01f  1
 298r 9.2232426e+02 6.09e-01 1.79e+03  -8.2 7.31e-04   2.6 4.45e-02 8.53e-02f  1
 299r 9.2232426e+02 6.09e-01 1.05e+03  -8.2 2.56e-04   3.0 6.56e-01 1.00e+00f  1
iter    objective    inf_pr   inf_du lg(mu)  ||d||  lg(rg) alpha_du alpha_pr  ls
 300r 9.2232426e+02 6.09e-01 1.15e+03  -8.2 1.11e-03   2.6 9.58e-02 1.24e-05h  1
 301r 9.2232426e+02 6.09e-01 1.02e+03  -8.2 2.73e-04   3.0 6.20e-01 9.66e-01f  1
 302r 9.2232426e+02 6.09e-01 6.91e+02  -8.2 1.68e-03   2.5 4.47e-01 1.00e+00f  1
 303r 9.2232426e+02 6.09e-01 1.23e+00  -8.2 7.81e-04   2.9 1.00e+00 4.92e-01h  1
 304r 9.2232426e+02 6.09e-01 2.84e+00  -8.2 5.00e-03   2.5 5.24e-01 1.00e+00f  1
 305r 9.2232426e+02 6.09e-01 1.84e+00  -8.2 2.38e-03   2.9 1.00e+00 1.00e+00f  1
 306r 9.2232426e+02 6.09e-01 1.37e+01  -8.2 1.98e-02   2.4 4.63e-01 1.00e+00f  1
 307r 9.2232426e+02 6.09e-01 6.54e+00  -8.2 9.54e-03   2.8 1.00e+00 1.00e+00f  1
 308r 9.2232426e+02 6.09e-01 1.58e+01  -8.2 8.58e-02   2.4 3.44e-01 4.89e-01f  1
 309r 9.2232426e+02 6.09e-01 1.58e+01  -8.2 1.10e-02   2.8 0.00e+00 1.64e-12R 15
iter    objective    inf_pr   inf_du lg(mu)  ||d||  lg(rg) alpha_du alpha_pr  ls
 310r 9.2232426e+02 6.09e-01 1.58e+01  -8.2 9.85e-02   2.3 8.68e-09 5.87e-12f 10
 311r 9.2232426e+02 6.09e-01 2.33e+01  -8.2 1.72e-01   1.8 1.11e-01 3.00e-09f  2
 312r 9.2232426e+02 6.09e-01 1.50e+02  -8.2 1.34e-01   1.4 1.00e+00 5.26e-02f  3
 313r 9.2232426e+02 6.09e-01 1.31e-01  -8.2 1.50e-03   0.9 1.00e+00 9.99e-01f  1
 314r 9.2232426e+02 6.09e-01 1.01e-03  -8.2 4.03e-04   0.4 9.94e-01 1.00e+00h  1
 315r 9.2232426e+02 6.09e-01 3.76e-03  -8.2 4.50e-03  -0.1 1.00e+00 1.00e+00f  1
 316r 9.2232426e+02 6.09e-01 1.01e-03  -8.2 3.63e-03  -0.6 9.95e-01 1.00e+00f  1
 317r 9.2232426e+02 6.09e-01 1.01e-03  -8.2 1.09e-02  -1.0 1.00e+00 1.00e+00f  1
 318r 9.2232426e+02 6.09e-01 1.01e-03  -8.2 3.26e-02  -1.5 1.00e+00 1.00e+00f  1
 319r 9.2232426e+02 6.09e-01 1.01e-03  -8.2 9.79e-02  -2.0 1.00e+00 1.00e+00f  1
iter    objective    inf_pr   inf_du lg(mu)  ||d||  lg(rg) alpha_du alpha_pr  ls
 320r 9.2232426e+02 6.09e-01 2.89e+00  -8.2 2.94e-01  -2.5 1.00e+00 5.84e-01f  1
 321r 9.2232426e+02 6.09e-01 4.98e+02  -8.2 8.80e-01  -2.9 5.53e-01 4.30e-02f  1
 322r 9.2232426e+02 6.09e-01 6.31e+02  -8.2 1.37e+00  -3.4 2.11e-01 1.81e-02f  1
 323r 9.2232426e+02 6.09e-01 6.33e+02  -8.2 4.11e+00  -3.9 2.06e-01 3.99e-05f  2
 324r 9.2232426e+02 6.09e-01 9.60e+02  -8.2 1.23e+01  -4.4 1.00e+00 2.53e-02f  1
 325r 9.2232425e+02 6.09e-01 9.52e+02  -8.2 2.40e+01  -4.8 6.49e-02 7.79e-03f  1
 326r 9.2232425e+02 6.09e-01 1.53e+03  -8.2 4.96e+01  -5.3 1.00e+00 6.96e-03f  1
 327r 9.2232420e+02 6.09e-01 1.50e+03  -8.2 9.11e+01  -5.8 6.71e-02 1.30e-02f  1
 328r 9.2232415e+02 6.09e-01 1.38e+03  -8.2 1.30e+02  -6.3 1.00e+00 4.65e-03f  1
 329r 9.2232065e+02 6.09e-01 1.24e+03  -8.2 3.89e+02  -6.8 8.31e-02 1.01e-01f  1
iter    objective    inf_pr   inf_du lg(mu)  ||d||  lg(rg) alpha_du alpha_pr  ls
 330r 9.2222757e+02 6.09e-01 1.11e+02  -8.2 1.17e+03  -7.2 1.00e+00 9.15e-01f  1
 331r 9.2192170e+02 6.09e-01 1.41e-03  -8.2 3.51e+03  -7.7 1.00e+00 1.00e+00f  1
 332r 9.2099849e+02 6.09e-01 1.29e-02  -8.2 1.05e+04  -8.2 1.00e+00 1.00e+00f  1
 333r 9.1818197e+02 6.09e-01 1.22e-01  -8.2 3.18e+04  -8.7 1.00e+00 1.00e+00f  1
 334r 9.0939312e+02 6.09e-01 1.27e+00  -8.2 9.69e+04  -9.1 1.00e+00 1.00e+00f  1
 335r 9.0425985e+02 6.09e-01 3.01e+01  -8.2 3.12e+05  -9.6 1.00e+00 1.67e-01f  1
 336r 9.0425985e+02 6.09e-01 3.01e+01  -8.2 1.01e+05    -  0.00e+00 6.51e-13R 15
 337r 9.0425985e+02 6.09e-01 6.39e+02  -8.2 1.01e+05    -  1.00e+00 1.04e-11f 11
 338r 9.2801325e+02 6.09e-01 1.93e+00  -8.2 1.01e+05    -  1.00e+00 9.97e-01f  1
 339r 9.2810939e+02 6.09e-01 2.31e-03  -8.2 8.59e+02    -  1.00e+00 1.00e+00h  1

Number of Iterations....: 339

                                   (scaled)                 (unscaled)
Objective...............:   9.2810941425152964e+02    9.2810941425152964e+02
Dual infeasibility......:   1.3389641632018700e-04    1.3389641632018700e-04
Constraint violation....:   6.0884488352373456e-01    6.0884488352373456e-01
Complementarity.........:   7.0586712024385888e-09    7.0586712024385888e-09
Overall NLP error.......:   6.0884488352373456e-01    6.0884488352373456e-01


Number of objective function evaluations             = 620
Number of objective gradient evaluations             = 34
Number of equality constraint evaluations            = 624
Number of inequality constraint evaluations          = 0
Number of equality constraint Jacobian evaluations   = 351
Number of inequality constraint Jacobian evaluations = 0
Number of Lagrangian Hessian evaluations             = 340
Total CPU secs in IPOPT (w/o function evaluations)   =      0.651
Total CPU secs in NLP function evaluations           =      9.628

EXIT: Converged to a point of local infeasibility. Problem may be infeasible.
